p cnf 45 30
c p distribution  0.875 0.125
c p distribution  0.875 0.125
c p distribution  0.875 0.125
c p distribution  0.875 0.125
c p distribution  0.875 0.125
c p distribution  0.875 0.125
c p distribution  0.875 0.125
c p distribution  0.875 0.125
c p distribution  0.875 0.125
c p distribution  0.875 0.125
c p distribution  0.875 0.125
c p distribution  0.875 0.125
c p distribution  0.875 0.125
c p distribution  0.875 0.125
34 0
-37 0
44 -39 -1 0
39 -44 -1 0
45 -38 -3 0
38 -45 -3 0
29 -37 -5 0
37 -29 -5 0
32 -35 -7 0
35 -32 -7 0
38 -45 -9 0
45 -38 -9 0
33 -39 -11 0
39 -33 -11 0
33 -40 -13 0
40 -33 -13 0
43 -30 -15 0
30 -43 -15 0
41 -39 -17 0
39 -41 -17 0
42 -43 -19 0
43 -42 -19 0
43 -38 -21 0
38 -43 -21 0
31 -36 -23 0
36 -31 -23 0
44 -39 -25 0
39 -44 -25 0
35 -30 -27 0
30 -35 -27 0

